p cnf 667 1956
c inputs: 1 2 3 4 5 6 7 8 9 10 11 12 13 14 15
c variables for gates: 16 ... 652
c outputs: 653 654 655 656 657 658 659 660 661 662 663 664 665 666 667
c random input: 1 -2 3 4 -5 -6 -7 8 9 10 11 12 -13 -14 -15
16 -1 -9 0
-16 1 0
-16 9 0
17 -2 -8 0
-17 2 0
-17 8 0
18 -16 17 0
-18 16 0
-18 -17 0
19 -17 16 0
-19 17 0
-19 -16 0
20 18 19 0
-20 -18 0
-20 -19 0
21 -1 -9 0
-21 1 0
-21 9 0
22 -2 -8 0
-22 2 0
-22 8 0
23 -22 -21 0
-23 22 0
-23 21 0
24 -1 -10 0
-24 1 0
-24 10 0
25 -2 -9 0
-25 2 0
-25 9 0
26 -25 -24 0
-26 25 0
-26 24 0
27 -1 -10 0
-27 1 0
-27 10 0
28 -27 -23 0
-28 27 0
-28 23 0
29 -2 -9 0
-29 2 0
-29 9 0
30 -29 -23 0
-30 29 0
-30 23 0
31 28 30 0
-31 -28 0
-31 -30 0
32 26 -31 0
-32 -26 0
-32 31 0
33 -1 -10 0
-33 1 0
-33 10 0
34 -2 -9 0
-34 2 0
-34 9 0
35 -34 23 0
-35 34 0
-35 -23 0
36 34 -23 0
-36 -34 0
-36 23 0
37 36 35 0
-37 -36 0
-37 -35 0
38 -33 -37 0
-38 33 0
-38 37 0
39 33 37 0
-39 -33 0
-39 -37 0
40 39 38 0
-40 -39 0
-40 -38 0
41 -1 -11 0
-41 1 0
-41 11 0
42 -2 -10 0
-42 2 0
-42 10 0
43 -42 -41 0
-43 42 0
-43 41 0
44 -1 -11 0
-44 1 0
-44 11 0
45 -44 32 0
-45 44 0
-45 -32 0
46 -2 -10 0
-46 2 0
-46 10 0
47 -46 32 0
-47 46 0
-47 -32 0
48 47 45 0
-48 -47 0
-48 -45 0
49 43 -48 0
-49 -43 0
-49 48 0
50 -1 -11 0
-50 1 0
-50 11 0
51 -2 -10 0
-51 2 0
-51 10 0
52 -51 -32 0
-52 51 0
-52 32 0
53 51 32 0
-53 -51 0
-53 -32 0
54 52 53 0
-54 -52 0
-54 -53 0
55 -50 -54 0
-55 50 0
-55 54 0
56 50 54 0
-56 -50 0
-56 -54 0
57 56 55 0
-57 -56 0
-57 -55 0
58 -1 -12 0
-58 1 0
-58 12 0
59 -2 -11 0
-59 2 0
-59 11 0
60 -59 -58 0
-60 59 0
-60 58 0
61 -1 -12 0
-61 1 0
-61 12 0
62 -61 49 0
-62 61 0
-62 -49 0
63 -2 -11 0
-63 2 0
-63 11 0
64 -63 49 0
-64 63 0
-64 -49 0
65 64 62 0
-65 -64 0
-65 -62 0
66 60 -65 0
-66 -60 0
-66 65 0
67 -1 -12 0
-67 1 0
-67 12 0
68 -2 -11 0
-68 2 0
-68 11 0
69 -68 -49 0
-69 68 0
-69 49 0
70 68 49 0
-70 -68 0
-70 -49 0
71 70 69 0
-71 -70 0
-71 -69 0
72 -67 -71 0
-72 67 0
-72 71 0
73 67 71 0
-73 -67 0
-73 -71 0
74 72 73 0
-74 -72 0
-74 -73 0
75 -1 -13 0
-75 1 0
-75 13 0
76 -2 -12 0
-76 2 0
-76 12 0
77 -76 -75 0
-77 76 0
-77 75 0
78 -1 -13 0
-78 1 0
-78 13 0
79 -78 66 0
-79 78 0
-79 -66 0
80 -2 -12 0
-80 2 0
-80 12 0
81 -80 66 0
-81 80 0
-81 -66 0
82 81 79 0
-82 -81 0
-82 -79 0
83 77 -82 0
-83 -77 0
-83 82 0
84 -1 -13 0
-84 1 0
-84 13 0
85 -2 -12 0
-85 2 0
-85 12 0
86 -85 -66 0
-86 85 0
-86 66 0
87 85 66 0
-87 -85 0
-87 -66 0
88 86 87 0
-88 -86 0
-88 -87 0
89 -84 -88 0
-89 84 0
-89 88 0
90 84 88 0
-90 -84 0
-90 -88 0
91 90 89 0
-91 -90 0
-91 -89 0
92 -1 -14 0
-92 1 0
-92 14 0
93 -2 -13 0
-93 2 0
-93 13 0
94 -93 -92 0
-94 93 0
-94 92 0
95 -1 -14 0
-95 1 0
-95 14 0
96 -95 83 0
-96 95 0
-96 -83 0
97 -2 -13 0
-97 2 0
-97 13 0
98 -97 83 0
-98 97 0
-98 -83 0
99 96 98 0
-99 -96 0
-99 -98 0
100 94 -99 0
-100 -94 0
-100 99 0
101 -1 -14 0
-101 1 0
-101 14 0
102 -2 -13 0
-102 2 0
-102 13 0
103 -102 -83 0
-103 102 0
-103 83 0
104 102 83 0
-104 -102 0
-104 -83 0
105 103 104 0
-105 -103 0
-105 -104 0
106 -101 -105 0
-106 101 0
-106 105 0
107 101 105 0
-107 -101 0
-107 -105 0
108 106 107 0
-108 -106 0
-108 -107 0
109 -1 -15 0
-109 1 0
-109 15 0
110 -2 -14 0
-110 2 0
-110 14 0
111 -110 -109 0
-111 110 0
-111 109 0
112 -1 -15 0
-112 1 0
-112 15 0
113 -112 100 0
-113 112 0
-113 -100 0
114 -2 -14 0
-114 2 0
-114 14 0
115 -114 100 0
-115 114 0
-115 -100 0
116 113 115 0
-116 -113 0
-116 -115 0
117 111 -116 0
-117 -111 0
-117 116 0
118 -1 -15 0
-118 1 0
-118 15 0
119 -2 -14 0
-119 2 0
-119 14 0
120 -119 -100 0
-120 119 0
-120 100 0
121 119 100 0
-121 -119 0
-121 -100 0
122 121 120 0
-122 -121 0
-122 -120 0
123 -118 -122 0
-123 118 0
-123 122 0
124 118 122 0
-124 -118 0
-124 -122 0
125 124 123 0
-125 -124 0
-125 -123 0
126 -2 -15 0
-126 2 0
-126 15 0
127 -126 117 0
-127 126 0
-127 -117 0
128 -2 -15 0
-128 2 0
-128 15 0
129 -128 -117 0
-129 128 0
-129 117 0
130 128 117 0
-130 -128 0
-130 -117 0
131 129 130 0
-131 -129 0
-131 -130 0
132 -3 -8 0
-132 3 0
-132 8 0
133 132 40 0
-133 -132 0
-133 -40 0
134 -132 -40 0
-134 132 0
-134 40 0
135 134 133 0
-135 -134 0
-135 -133 0
136 -3 -8 0
-136 3 0
-136 8 0
137 -136 40 0
-137 136 0
-137 -40 0
138 -3 -9 0
-138 3 0
-138 9 0
139 -138 57 0
-139 138 0
-139 -57 0
140 57 -137 0
-140 -57 0
-140 137 0
141 -3 -9 0
-141 3 0
-141 9 0
142 -141 -137 0
-142 141 0
-142 137 0
143 142 140 0
-143 -142 0
-143 -140 0
144 139 -143 0
-144 -139 0
-144 143 0
145 -3 -9 0
-145 3 0
-145 9 0
146 -145 137 0
-146 145 0
-146 -137 0
147 145 -137 0
-147 -145 0
-147 137 0
148 147 146 0
-148 -147 0
-148 -146 0
149 57 -148 0
-149 -57 0
-149 148 0
150 -57 148 0
-150 57 0
-150 -148 0
151 149 150 0
-151 -149 0
-151 -150 0
152 -3 -10 0
-152 3 0
-152 10 0
153 -152 74 0
-153 152 0
-153 -74 0
154 74 144 0
-154 -74 0
-154 -144 0
155 -3 -10 0
-155 3 0
-155 10 0
156 -155 144 0
-156 155 0
-156 -144 0
157 154 156 0
-157 -154 0
-157 -156 0
158 153 -157 0
-158 -153 0
-158 157 0
159 -3 -10 0
-159 3 0
-159 10 0
160 -159 -144 0
-160 159 0
-160 144 0
161 159 144 0
-161 -159 0
-161 -144 0
162 161 160 0
-162 -161 0
-162 -160 0
163 74 -162 0
-163 -74 0
-163 162 0
164 -74 162 0
-164 74 0
-164 -162 0
165 164 163 0
-165 -164 0
-165 -163 0
166 -3 -11 0
-166 3 0
-166 11 0
167 -166 91 0
-167 166 0
-167 -91 0
168 158 91 0
-168 -158 0
-168 -91 0
169 -3 -11 0
-169 3 0
-169 11 0
170 -169 158 0
-170 169 0
-170 -158 0
171 168 170 0
-171 -168 0
-171 -170 0
172 -171 167 0
-172 171 0
-172 -167 0
173 -3 -11 0
-173 3 0
-173 11 0
174 -173 -158 0
-174 173 0
-174 158 0
175 173 158 0
-175 -173 0
-175 -158 0
176 174 175 0
-176 -174 0
-176 -175 0
177 91 -176 0
-177 -91 0
-177 176 0
178 -91 176 0
-178 91 0
-178 -176 0
179 178 177 0
-179 -178 0
-179 -177 0
180 -3 -12 0
-180 3 0
-180 12 0
181 -180 108 0
-181 180 0
-181 -108 0
182 108 172 0
-182 -108 0
-182 -172 0
183 -3 -12 0
-183 3 0
-183 12 0
184 -183 172 0
-184 183 0
-184 -172 0
185 182 184 0
-185 -182 0
-185 -184 0
186 181 -185 0
-186 -181 0
-186 185 0
187 -3 -12 0
-187 3 0
-187 12 0
188 -187 -172 0
-188 187 0
-188 172 0
189 187 172 0
-189 -187 0
-189 -172 0
190 189 188 0
-190 -189 0
-190 -188 0
191 -190 108 0
-191 190 0
-191 -108 0
192 190 -108 0
-192 -190 0
-192 108 0
193 191 192 0
-193 -191 0
-193 -192 0
194 -3 -13 0
-194 3 0
-194 13 0
195 -194 125 0
-195 194 0
-195 -125 0
196 186 125 0
-196 -186 0
-196 -125 0
197 -3 -13 0
-197 3 0
-197 13 0
198 -197 186 0
-198 197 0
-198 -186 0
199 198 196 0
-199 -198 0
-199 -196 0
200 -199 195 0
-200 199 0
-200 -195 0
201 -3 -13 0
-201 3 0
-201 13 0
202 -201 -186 0
-202 201 0
-202 186 0
203 201 186 0
-203 -201 0
-203 -186 0
204 203 202 0
-204 -203 0
-204 -202 0
205 125 -204 0
-205 -125 0
-205 204 0
206 -125 204 0
-206 125 0
-206 -204 0
207 205 206 0
-207 -205 0
-207 -206 0
208 -3 -14 0
-208 3 0
-208 14 0
209 -208 131 0
-209 208 0
-209 -131 0
210 131 200 0
-210 -131 0
-210 -200 0
211 -3 -14 0
-211 3 0
-211 14 0
212 -211 200 0
-212 211 0
-212 -200 0
213 210 212 0
-213 -210 0
-213 -212 0
214 209 -213 0
-214 -209 0
-214 213 0
215 -3 -14 0
-215 3 0
-215 14 0
216 -215 -200 0
-216 215 0
-216 200 0
217 215 200 0
-217 -215 0
-217 -200 0
218 216 217 0
-218 -216 0
-218 -217 0
219 131 -218 0
-219 -131 0
-219 218 0
220 -131 218 0
-220 131 0
-220 -218 0
221 220 219 0
-221 -220 0
-221 -219 0
222 -3 -15 0
-222 3 0
-222 15 0
223 -222 -127 0
-223 222 0
-223 127 0
224 214 -127 0
-224 -214 0
-224 127 0
225 -3 -15 0
-225 3 0
-225 15 0
226 -225 214 0
-226 225 0
-226 -214 0
227 226 224 0
-227 -226 0
-227 -224 0
228 -227 223 0
-228 227 0
-228 -223 0
229 -3 -15 0
-229 3 0
-229 15 0
230 -229 -214 0
-230 229 0
-230 214 0
231 229 214 0
-231 -229 0
-231 -214 0
232 230 231 0
-232 -230 0
-232 -231 0
233 -127 -232 0
-233 127 0
-233 232 0
234 127 232 0
-234 -127 0
-234 -232 0
235 234 233 0
-235 -234 0
-235 -233 0
236 -4 -8 0
-236 4 0
-236 8 0
237 236 151 0
-237 -236 0
-237 -151 0
238 -236 -151 0
-238 236 0
-238 151 0
239 238 237 0
-239 -238 0
-239 -237 0
240 -4 -8 0
-240 4 0
-240 8 0
241 -240 151 0
-241 240 0
-241 -151 0
242 -4 -9 0
-242 4 0
-242 9 0
243 -242 165 0
-243 242 0
-243 -165 0
244 -241 165 0
-244 241 0
-244 -165 0
245 -4 -9 0
-245 4 0
-245 9 0
246 -245 -241 0
-246 245 0
-246 241 0
247 246 244 0
-247 -246 0
-247 -244 0
248 -247 243 0
-248 247 0
-248 -243 0
249 -4 -9 0
-249 4 0
-249 9 0
250 -249 241 0
-250 249 0
-250 -241 0
251 249 -241 0
-251 -249 0
-251 241 0
252 251 250 0
-252 -251 0
-252 -250 0
253 165 -252 0
-253 -165 0
-253 252 0
254 -165 252 0
-254 165 0
-254 -252 0
255 254 253 0
-255 -254 0
-255 -253 0
256 -4 -10 0
-256 4 0
-256 10 0
257 -256 179 0
-257 256 0
-257 -179 0
258 248 179 0
-258 -248 0
-258 -179 0
259 -4 -10 0
-259 4 0
-259 10 0
260 -259 248 0
-260 259 0
-260 -248 0
261 260 258 0
-261 -260 0
-261 -258 0
262 -261 257 0
-262 261 0
-262 -257 0
263 -4 -10 0
-263 4 0
-263 10 0
264 -263 -248 0
-264 263 0
-264 248 0
265 263 248 0
-265 -263 0
-265 -248 0
266 265 264 0
-266 -265 0
-266 -264 0
267 179 -266 0
-267 -179 0
-267 266 0
268 -179 266 0
-268 179 0
-268 -266 0
269 267 268 0
-269 -267 0
-269 -268 0
270 -4 -11 0
-270 4 0
-270 11 0
271 -270 193 0
-271 270 0
-271 -193 0
272 193 262 0
-272 -193 0
-272 -262 0
273 -4 -11 0
-273 4 0
-273 11 0
274 -273 262 0
-274 273 0
-274 -262 0
275 272 274 0
-275 -272 0
-275 -274 0
276 -275 271 0
-276 275 0
-276 -271 0
277 -4 -11 0
-277 4 0
-277 11 0
278 -277 -262 0
-278 277 0
-278 262 0
279 277 262 0
-279 -277 0
-279 -262 0
280 279 278 0
-280 -279 0
-280 -278 0
281 -280 193 0
-281 280 0
-281 -193 0
282 280 -193 0
-282 -280 0
-282 193 0
283 281 282 0
-283 -281 0
-283 -282 0
284 -4 -12 0
-284 4 0
-284 12 0
285 -284 207 0
-285 284 0
-285 -207 0
286 276 207 0
-286 -276 0
-286 -207 0
287 -4 -12 0
-287 4 0
-287 12 0
288 -287 276 0
-288 287 0
-288 -276 0
289 286 288 0
-289 -286 0
-289 -288 0
290 285 -289 0
-290 -285 0
-290 289 0
291 -4 -12 0
-291 4 0
-291 12 0
292 -291 -276 0
-292 291 0
-292 276 0
293 291 276 0
-293 -291 0
-293 -276 0
294 292 293 0
-294 -292 0
-294 -293 0
295 -294 207 0
-295 294 0
-295 -207 0
296 294 -207 0
-296 -294 0
-296 207 0
297 296 295 0
-297 -296 0
-297 -295 0
298 -4 -13 0
-298 4 0
-298 13 0
299 -298 221 0
-299 298 0
-299 -221 0
300 290 221 0
-300 -290 0
-300 -221 0
301 -4 -13 0
-301 4 0
-301 13 0
302 -301 290 0
-302 301 0
-302 -290 0
303 300 302 0
-303 -300 0
-303 -302 0
304 -303 299 0
-304 303 0
-304 -299 0
305 -4 -13 0
-305 4 0
-305 13 0
306 -305 -290 0
-306 305 0
-306 290 0
307 305 290 0
-307 -305 0
-307 -290 0
308 306 307 0
-308 -306 0
-308 -307 0
309 221 -308 0
-309 -221 0
-309 308 0
310 -221 308 0
-310 221 0
-310 -308 0
311 309 310 0
-311 -309 0
-311 -310 0
312 -4 -14 0
-312 4 0
-312 14 0
313 -312 235 0
-313 312 0
-313 -235 0
314 235 304 0
-314 -235 0
-314 -304 0
315 -4 -14 0
-315 4 0
-315 14 0
316 -315 304 0
-316 315 0
-316 -304 0
317 316 314 0
-317 -316 0
-317 -314 0
318 313 -317 0
-318 -313 0
-318 317 0
319 -4 -14 0
-319 4 0
-319 14 0
320 -319 -304 0
-320 319 0
-320 304 0
321 319 304 0
-321 -319 0
-321 -304 0
322 320 321 0
-322 -320 0
-322 -321 0
323 -322 235 0
-323 322 0
-323 -235 0
324 322 -235 0
-324 -322 0
-324 235 0
325 323 324 0
-325 -323 0
-325 -324 0
326 -4 -15 0
-326 4 0
-326 15 0
327 -326 228 0
-327 326 0
-327 -228 0
328 228 318 0
-328 -228 0
-328 -318 0
329 -4 -15 0
-329 4 0
-329 15 0
330 -329 318 0
-330 329 0
-330 -318 0
331 328 330 0
-331 -328 0
-331 -330 0
332 -331 327 0
-332 331 0
-332 -327 0
333 -4 -15 0
-333 4 0
-333 15 0
334 -333 -318 0
-334 333 0
-334 318 0
335 333 318 0
-335 -333 0
-335 -318 0
336 335 334 0
-336 -335 0
-336 -334 0
337 228 -336 0
-337 -228 0
-337 336 0
338 -228 336 0
-338 228 0
-338 -336 0
339 337 338 0
-339 -337 0
-339 -338 0
340 -5 -8 0
-340 5 0
-340 8 0
341 340 255 0
-341 -340 0
-341 -255 0
342 -340 -255 0
-342 340 0
-342 255 0
343 342 341 0
-343 -342 0
-343 -341 0
344 -5 -8 0
-344 5 0
-344 8 0
345 -344 255 0
-345 344 0
-345 -255 0
346 -5 -9 0
-346 5 0
-346 9 0
347 -346 269 0
-347 346 0
-347 -269 0
348 -345 269 0
-348 345 0
-348 -269 0
349 -5 -9 0
-349 5 0
-349 9 0
350 -349 -345 0
-350 349 0
-350 345 0
351 350 348 0
-351 -350 0
-351 -348 0
352 -351 347 0
-352 351 0
-352 -347 0
353 -5 -9 0
-353 5 0
-353 9 0
354 -353 345 0
-354 353 0
-354 -345 0
355 353 -345 0
-355 -353 0
-355 345 0
356 355 354 0
-356 -355 0
-356 -354 0
357 269 -356 0
-357 -269 0
-357 356 0
358 -269 356 0
-358 269 0
-358 -356 0
359 358 357 0
-359 -358 0
-359 -357 0
360 -5 -10 0
-360 5 0
-360 10 0
361 -360 283 0
-361 360 0
-361 -283 0
362 283 352 0
-362 -283 0
-362 -352 0
363 -5 -10 0
-363 5 0
-363 10 0
364 -363 352 0
-364 363 0
-364 -352 0
365 362 364 0
-365 -362 0
-365 -364 0
366 -365 361 0
-366 365 0
-366 -361 0
367 -5 -10 0
-367 5 0
-367 10 0
368 -367 -352 0
-368 367 0
-368 352 0
369 367 352 0
-369 -367 0
-369 -352 0
370 369 368 0
-370 -369 0
-370 -368 0
371 -370 283 0
-371 370 0
-371 -283 0
372 370 -283 0
-372 -370 0
-372 283 0
373 372 371 0
-373 -372 0
-373 -371 0
374 -5 -11 0
-374 5 0
-374 11 0
375 -374 297 0
-375 374 0
-375 -297 0
376 366 297 0
-376 -366 0
-376 -297 0
377 -5 -11 0
-377 5 0
-377 11 0
378 -377 366 0
-378 377 0
-378 -366 0
379 376 378 0
-379 -376 0
-379 -378 0
380 -379 375 0
-380 379 0
-380 -375 0
381 -5 -11 0
-381 5 0
-381 11 0
382 -381 -366 0
-382 381 0
-382 366 0
383 381 366 0
-383 -381 0
-383 -366 0
384 383 382 0
-384 -383 0
-384 -382 0
385 -384 297 0
-385 384 0
-385 -297 0
386 384 -297 0
-386 -384 0
-386 297 0
387 385 386 0
-387 -385 0
-387 -386 0
388 -5 -12 0
-388 5 0
-388 12 0
389 -388 311 0
-389 388 0
-389 -311 0
390 311 380 0
-390 -311 0
-390 -380 0
391 -5 -12 0
-391 5 0
-391 12 0
392 -391 380 0
-392 391 0
-392 -380 0
393 392 390 0
-393 -392 0
-393 -390 0
394 389 -393 0
-394 -389 0
-394 393 0
395 -5 -12 0
-395 5 0
-395 12 0
396 -395 -380 0
-396 395 0
-396 380 0
397 395 380 0
-397 -395 0
-397 -380 0
398 396 397 0
-398 -396 0
-398 -397 0
399 311 -398 0
-399 -311 0
-399 398 0
400 -311 398 0
-400 311 0
-400 -398 0
401 399 400 0
-401 -399 0
-401 -400 0
402 -5 -13 0
-402 5 0
-402 13 0
403 -402 325 0
-403 402 0
-403 -325 0
404 325 394 0
-404 -325 0
-404 -394 0
405 -5 -13 0
-405 5 0
-405 13 0
406 -405 394 0
-406 405 0
-406 -394 0
407 404 406 0
-407 -404 0
-407 -406 0
408 403 -407 0
-408 -403 0
-408 407 0
409 -5 -13 0
-409 5 0
-409 13 0
410 -409 -394 0
-410 409 0
-410 394 0
411 409 394 0
-411 -409 0
-411 -394 0
412 410 411 0
-412 -410 0
-412 -411 0
413 325 -412 0
-413 -325 0
-413 412 0
414 -325 412 0
-414 325 0
-414 -412 0
415 413 414 0
-415 -413 0
-415 -414 0
416 -5 -14 0
-416 5 0
-416 14 0
417 -416 339 0
-417 416 0
-417 -339 0
418 339 408 0
-418 -339 0
-418 -408 0
419 -5 -14 0
-419 5 0
-419 14 0
420 -419 408 0
-420 419 0
-420 -408 0
421 418 420 0
-421 -418 0
-421 -420 0
422 -421 417 0
-422 421 0
-422 -417 0
423 -5 -14 0
-423 5 0
-423 14 0
424 -423 -408 0
-424 423 0
-424 408 0
425 423 408 0
-425 -423 0
-425 -408 0
426 424 425 0
-426 -424 0
-426 -425 0
427 -426 339 0
-427 426 0
-427 -339 0
428 426 -339 0
-428 -426 0
-428 339 0
429 427 428 0
-429 -427 0
-429 -428 0
430 -5 -15 0
-430 5 0
-430 15 0
431 -430 332 0
-431 430 0
-431 -332 0
432 332 422 0
-432 -332 0
-432 -422 0
433 -5 -15 0
-433 5 0
-433 15 0
434 -433 422 0
-434 433 0
-434 -422 0
435 432 434 0
-435 -432 0
-435 -434 0
436 431 -435 0
-436 -431 0
-436 435 0
437 -5 -15 0
-437 5 0
-437 15 0
438 -437 -422 0
-438 437 0
-438 422 0
439 437 422 0
-439 -437 0
-439 -422 0
440 438 439 0
-440 -438 0
-440 -439 0
441 332 -440 0
-441 -332 0
-441 440 0
442 -332 440 0
-442 332 0
-442 -440 0
443 442 441 0
-443 -442 0
-443 -441 0
444 -6 -8 0
-444 6 0
-444 8 0
445 444 359 0
-445 -444 0
-445 -359 0
446 -444 -359 0
-446 444 0
-446 359 0
447 446 445 0
-447 -446 0
-447 -445 0
448 -6 -8 0
-448 6 0
-448 8 0
449 -448 359 0
-449 448 0
-449 -359 0
450 -6 -9 0
-450 6 0
-450 9 0
451 -450 373 0
-451 450 0
-451 -373 0
452 373 -449 0
-452 -373 0
-452 449 0
453 -6 -9 0
-453 6 0
-453 9 0
454 -453 -449 0
-454 453 0
-454 449 0
455 452 454 0
-455 -452 0
-455 -454 0
456 451 -455 0
-456 -451 0
-456 455 0
457 -6 -9 0
-457 6 0
-457 9 0
458 -457 449 0
-458 457 0
-458 -449 0
459 457 -449 0
-459 -457 0
-459 449 0
460 458 459 0
-460 -458 0
-460 -459 0
461 373 -460 0
-461 -373 0
-461 460 0
462 -373 460 0
-462 373 0
-462 -460 0
463 461 462 0
-463 -461 0
-463 -462 0
464 -6 -10 0
-464 6 0
-464 10 0
465 -464 387 0
-465 464 0
-465 -387 0
466 387 456 0
-466 -387 0
-466 -456 0
467 -6 -10 0
-467 6 0
-467 10 0
468 -467 456 0
-468 467 0
-468 -456 0
469 466 468 0
-469 -466 0
-469 -468 0
470 465 -469 0
-470 -465 0
-470 469 0
471 -6 -10 0
-471 6 0
-471 10 0
472 -471 -456 0
-472 471 0
-472 456 0
473 471 456 0
-473 -471 0
-473 -456 0
474 473 472 0
-474 -473 0
-474 -472 0
475 -474 387 0
-475 474 0
-475 -387 0
476 474 -387 0
-476 -474 0
-476 387 0
477 476 475 0
-477 -476 0
-477 -475 0
478 -6 -11 0
-478 6 0
-478 11 0
479 -478 401 0
-479 478 0
-479 -401 0
480 470 401 0
-480 -470 0
-480 -401 0
481 -6 -11 0
-481 6 0
-481 11 0
482 -481 470 0
-482 481 0
-482 -470 0
483 482 480 0
-483 -482 0
-483 -480 0
484 -483 479 0
-484 483 0
-484 -479 0
485 -6 -11 0
-485 6 0
-485 11 0
486 -485 -470 0
-486 485 0
-486 470 0
487 485 470 0
-487 -485 0
-487 -470 0
488 487 486 0
-488 -487 0
-488 -486 0
489 -488 401 0
-489 488 0
-489 -401 0
490 488 -401 0
-490 -488 0
-490 401 0
491 489 490 0
-491 -489 0
-491 -490 0
492 -6 -12 0
-492 6 0
-492 12 0
493 -492 415 0
-493 492 0
-493 -415 0
494 415 484 0
-494 -415 0
-494 -484 0
495 -6 -12 0
-495 6 0
-495 12 0
496 -495 484 0
-496 495 0
-496 -484 0
497 496 494 0
-497 -496 0
-497 -494 0
498 -497 493 0
-498 497 0
-498 -493 0
499 -6 -12 0
-499 6 0
-499 12 0
500 -499 -484 0
-500 499 0
-500 484 0
501 499 484 0
-501 -499 0
-501 -484 0
502 501 500 0
-502 -501 0
-502 -500 0
503 -502 415 0
-503 502 0
-503 -415 0
504 502 -415 0
-504 -502 0
-504 415 0
505 503 504 0
-505 -503 0
-505 -504 0
506 -6 -13 0
-506 6 0
-506 13 0
507 -506 429 0
-507 506 0
-507 -429 0
508 429 498 0
-508 -429 0
-508 -498 0
509 -6 -13 0
-509 6 0
-509 13 0
510 -509 498 0
-510 509 0
-510 -498 0
511 510 508 0
-511 -510 0
-511 -508 0
512 507 -511 0
-512 -507 0
-512 511 0
513 -6 -13 0
-513 6 0
-513 13 0
514 -513 -498 0
-514 513 0
-514 498 0
515 513 498 0
-515 -513 0
-515 -498 0
516 515 514 0
-516 -515 0
-516 -514 0
517 429 -516 0
-517 -429 0
-517 516 0
518 -429 516 0
-518 429 0
-518 -516 0
519 517 518 0
-519 -517 0
-519 -518 0
520 -6 -14 0
-520 6 0
-520 14 0
521 -520 443 0
-521 520 0
-521 -443 0
522 443 512 0
-522 -443 0
-522 -512 0
523 -6 -14 0
-523 6 0
-523 14 0
524 -523 512 0
-524 523 0
-524 -512 0
525 522 524 0
-525 -522 0
-525 -524 0
526 521 -525 0
-526 -521 0
-526 525 0
527 -6 -14 0
-527 6 0
-527 14 0
528 -527 -512 0
-528 527 0
-528 512 0
529 527 512 0
-529 -527 0
-529 -512 0
530 528 529 0
-530 -528 0
-530 -529 0
531 443 -530 0
-531 -443 0
-531 530 0
532 -443 530 0
-532 443 0
-532 -530 0
533 531 532 0
-533 -531 0
-533 -532 0
534 -6 -15 0
-534 6 0
-534 15 0
535 -534 436 0
-535 534 0
-535 -436 0
536 526 436 0
-536 -526 0
-536 -436 0
537 -6 -15 0
-537 6 0
-537 15 0
538 -537 526 0
-538 537 0
-538 -526 0
539 538 536 0
-539 -538 0
-539 -536 0
540 -539 535 0
-540 539 0
-540 -535 0
541 -6 -15 0
-541 6 0
-541 15 0
542 -541 -526 0
-542 541 0
-542 526 0
543 541 526 0
-543 -541 0
-543 -526 0
544 542 543 0
-544 -542 0
-544 -543 0
545 436 -544 0
-545 -436 0
-545 544 0
546 -436 544 0
-546 436 0
-546 -544 0
547 546 545 0
-547 -546 0
-547 -545 0
548 -7 -8 0
-548 7 0
-548 8 0
549 548 463 0
-549 -548 0
-549 -463 0
550 -548 -463 0
-550 548 0
-550 463 0
551 550 549 0
-551 -550 0
-551 -549 0
552 -7 -8 0
-552 7 0
-552 8 0
553 -552 463 0
-553 552 0
-553 -463 0
554 -7 -9 0
-554 7 0
-554 9 0
555 -554 477 0
-555 554 0
-555 -477 0
556 477 -553 0
-556 -477 0
-556 553 0
557 -7 -9 0
-557 7 0
-557 9 0
558 -557 -553 0
-558 557 0
-558 553 0
559 558 556 0
-559 -558 0
-559 -556 0
560 555 -559 0
-560 -555 0
-560 559 0
561 -7 -9 0
-561 7 0
-561 9 0
562 -561 553 0
-562 561 0
-562 -553 0
563 561 -553 0
-563 -561 0
-563 553 0
564 563 562 0
-564 -563 0
-564 -562 0
565 -564 477 0
-565 564 0
-565 -477 0
566 564 -477 0
-566 -564 0
-566 477 0
567 566 565 0
-567 -566 0
-567 -565 0
568 -7 -10 0
-568 7 0
-568 10 0
569 -568 491 0
-569 568 0
-569 -491 0
570 560 491 0
-570 -560 0
-570 -491 0
571 -7 -10 0
-571 7 0
-571 10 0
572 -571 560 0
-572 571 0
-572 -560 0
573 572 570 0
-573 -572 0
-573 -570 0
574 569 -573 0
-574 -569 0
-574 573 0
575 -7 -10 0
-575 7 0
-575 10 0
576 -575 -560 0
-576 575 0
-576 560 0
577 575 560 0
-577 -575 0
-577 -560 0
578 577 576 0
-578 -577 0
-578 -576 0
579 491 -578 0
-579 -491 0
-579 578 0
580 -491 578 0
-580 491 0
-580 -578 0
581 580 579 0
-581 -580 0
-581 -579 0
582 -7 -11 0
-582 7 0
-582 11 0
583 -582 505 0
-583 582 0
-583 -505 0
584 574 505 0
-584 -574 0
-584 -505 0
585 -7 -11 0
-585 7 0
-585 11 0
586 -585 574 0
-586 585 0
-586 -574 0
587 586 584 0
-587 -586 0
-587 -584 0
588 583 -587 0
-588 -583 0
-588 587 0
589 -7 -11 0
-589 7 0
-589 11 0
590 -589 -574 0
-590 589 0
-590 574 0
591 589 574 0
-591 -589 0
-591 -574 0
592 590 591 0
-592 -590 0
-592 -591 0
593 505 -592 0
-593 -505 0
-593 592 0
594 -505 592 0
-594 505 0
-594 -592 0
595 593 594 0
-595 -593 0
-595 -594 0
596 -7 -12 0
-596 7 0
-596 12 0
597 -596 519 0
-597 596 0
-597 -519 0
598 519 588 0
-598 -519 0
-598 -588 0
599 -7 -12 0
-599 7 0
-599 12 0
600 -599 588 0
-600 599 0
-600 -588 0
601 598 600 0
-601 -598 0
-601 -600 0
602 597 -601 0
-602 -597 0
-602 601 0
603 -7 -12 0
-603 7 0
-603 12 0
604 -603 -588 0
-604 603 0
-604 588 0
605 603 588 0
-605 -603 0
-605 -588 0
606 604 605 0
-606 -604 0
-606 -605 0
607 519 -606 0
-607 -519 0
-607 606 0
608 -519 606 0
-608 519 0
-608 -606 0
609 608 607 0
-609 -608 0
-609 -607 0
610 -7 -13 0
-610 7 0
-610 13 0
611 -610 533 0
-611 610 0
-611 -533 0
612 533 602 0
-612 -533 0
-612 -602 0
613 -7 -13 0
-613 7 0
-613 13 0
614 -613 602 0
-614 613 0
-614 -602 0
615 612 614 0
-615 -612 0
-615 -614 0
616 611 -615 0
-616 -611 0
-616 615 0
617 -7 -13 0
-617 7 0
-617 13 0
618 -617 -602 0
-618 617 0
-618 602 0
619 617 602 0
-619 -617 0
-619 -602 0
620 619 618 0
-620 -619 0
-620 -618 0
621 -620 533 0
-621 620 0
-621 -533 0
622 620 -533 0
-622 -620 0
-622 533 0
623 622 621 0
-623 -622 0
-623 -621 0
624 -7 -14 0
-624 7 0
-624 14 0
625 -624 547 0
-625 624 0
-625 -547 0
626 616 547 0
-626 -616 0
-626 -547 0
627 -7 -14 0
-627 7 0
-627 14 0
628 -627 616 0
-628 627 0
-628 -616 0
629 628 626 0
-629 -628 0
-629 -626 0
630 625 -629 0
-630 -625 0
-630 629 0
631 -7 -14 0
-631 7 0
-631 14 0
632 -631 -616 0
-632 631 0
-632 616 0
633 631 616 0
-633 -631 0
-633 -616 0
634 632 633 0
-634 -632 0
-634 -633 0
635 547 -634 0
-635 -547 0
-635 634 0
636 -547 634 0
-636 547 0
-636 -634 0
637 635 636 0
-637 -635 0
-637 -636 0
638 -7 -15 0
-638 7 0
-638 15 0
639 -638 540 0
-639 638 0
-639 -540 0
640 630 540 0
-640 -630 0
-640 -540 0
641 -7 -15 0
-641 7 0
-641 15 0
642 -641 630 0
-642 641 0
-642 -630 0
643 640 642 0
-643 -640 0
-643 -642 0
644 -643 639 0
-644 643 0
-644 -639 0
645 -7 -15 0
-645 7 0
-645 15 0
646 -645 -630 0
-646 645 0
-646 630 0
647 645 630 0
-647 -645 0
-647 -630 0
648 646 647 0
-648 -646 0
-648 -647 0
649 -648 540 0
-649 648 0
-649 -540 0
650 648 -540 0
-650 -648 0
-650 540 0
651 650 649 0
-651 -650 0
-651 -649 0
652 -1 -8 0
-652 1 0
-652 8 0
-653 652 0
653 -652 0
-654 -20 0
654 20 0
-655 -135 0
655 135 0
-656 -239 0
656 239 0
-657 -343 0
657 343 0
-658 -447 0
658 447 0
-659 -551 0
659 551 0
-660 -567 0
660 567 0
-661 -581 0
661 581 0
-662 -595 0
662 595 0
-663 -609 0
663 609 0
-664 -623 0
664 623 0
-665 -637 0
665 637 0
-666 -651 0
666 651 0
-667 -644 0
667 644 0
653 0
654 0
-655 0
-656 0
657 0
-658 0
-659 0
660 0
661 0
-662 0
-663 0
-664 0
-665 0
-666 0
-667 0
